300,25
321,406
613,273
681,226
817,139
1006,457
804,575
452,721
342,745
450,860
681,766
616,820
282,535
435,745
639,672
764,662
1137,554
1135,175
681,46
681,-134
464,-21
570,64
635,264
786,551
727,548
654,353
453,332
141,406
494,311
653,229
635,110
698,430
641,486
838,891
